p cnf 29 20
21 29 10 0
-12 -25 -13 0
2 28 9 0
20 -1 26 0
-2 -25 -19 0
-28 8 12 0
-28 -12 28 0
27 18 -29 0
24 11 -25 0
5 7 25 0
-6 23 11 0
-14 18 -18 0
29 14 14 0
19 -13 -23 0
-28 -14 24 0
16 -5 -6 0
-4 8 7 0
22 -9 -9 0
-25 -17 18 0
-13 8 4 0
